15
-1 94 357 185 679 155 619 537 548 675 251 446 643 292 681 
94 -1 303 270 712 73 714 517 638 768 215 512 687 386 737 
357 303 -1 427 575 233 887 255 757 908 115 527 593 574 678 
185 270 427 -1 553 305 467 522 369 506 313 275 499 146 519 
679 712 575 553 -1 686 752 380 569 698 549 323 97 621 194 
155 73 233 305 686 -1 764 459 675 811 157 519 672 436 731 
619 714 887 467 752 764 -1 917 183 111 776 455 658 328 595 
537 517 255 522 380 459 917 -1 754 906 302 478 432 655 534 
548 638 757 369 569 675 183 754 -1 153 653 280 475 269 415 
675 768 908 506 698 811 111 906 153 -1 801 429 601 383 526 
251 215 115 313 549 157 776 302 653 801 -1 442 548 460 621 
446 512 527 275 323 519 455 478 280 429 442 -1 244 304 244 
643 687 593 499 97 672 658 432 475 601 548 244 -1 548 106 
292 386 574 146 621 436 328 655 269 383 460 304 548 -1 540 
681 737 678 519 194 731 595 534 415 526 621 244 106 540 -1 
